WARNING: for repeatability, setting FPU to use double precision
============================[ Problem Statistics ]=============================
|                                                                             |
|  Number of variables:        633389                                         |
|  Number of clauses:         1609568                                         |
|  Parse time:                   0.52 s                                       |
|                                                                             |
============================[ Search Statistics ]==============================
| Conflicts |          ORIGINAL         |          LEARNT          | Progress |
|           |    Vars  Clauses Literals |    Limit  Clauses Lit/Cl |          |
===============================================================================
|       100 |  373050  1568419  3509488 |   575086      100     27 | 41.103 % |
|       250 |  373050  1568419  3509488 |   632595      250     18 | 41.103 % |
|       475 |  373050  1568419  3509488 |   695855      475     20 | 41.103 % |
|       812 |  373050  1568419  3509488 |   765440      812     21 | 41.103 % |
|      1318 |  373050  1568419  3509488 |   841984     1318     60 | 41.103 % |
|      2077 |  373050  1568419  3509488 |   926183     2077     72 | 41.103 % |
|      3216 |  373050  1568419  3509488 |  1018801     3216    150 | 41.103 % |
|      4924 |  373050  1568419  3509488 |  1120681     4924    143 | 41.103 % |
|      7486 |  373050  1568419  3509488 |  1232749     7486    185 | 41.103 % |
|     11330 |  373050  1568419  3509488 |  1356024    11330    183 | 41.103 % |
|     17096 |  373050  1568419  3509488 |  1491627    17096    160 | 41.103 % |
|     25745 |  373050  1568419  3509488 |  1640790    25745    137 | 41.103 % |
|     38719 |  373050  1568419  3509488 |  1804869    38719    125 | 41.103 % |
|     58180 |  373050  1568419  3509488 |  1985356    58180    100 | 41.103 % |
|     87372 |  373050  1568419  3509488 |  2183891    87372     78 | 41.103 % |
|    131161 |  373046  1568402  3509448 |  2402280   126063     64 | 41.103 % |
===============================================================================
restarts              : 360
conflicts             : 131600         (868 /sec)
decisions             : 432616         (0.00 % random) (2854 /sec)
propagations          : 637318408      (4204794 /sec)
conflict literals     : 8164163        (30.97 % deleted)
Memory used           : 210.00 MB
CPU time              : 151.569 s

UNSATISFIABLE
